Cost: 595
0-17-44-42-41-4-0
0-16-21-34-9-38-0
0-20-35-36-3-22-1-0
0-49-10-33-45-15-37-0
0-27-23-7-43-24-0
0-11-2-32-0
0-46-12-47-0
0-28-31-8-48-6-0
0-14-25-18-0
Cost: 595
0-18-25-14-0
0-11-2-32-0
0-20-35-36-3-22-1-0
0-28-31-8-48-6-0
0-4-41-42-44-17-0
0-27-23-7-43-24-0
0-38-9-34-21-16-0
0-49-10-33-45-15-37-0
0-46-12-47-0
Cost: 595
0-17-44-42-41-4-0
0-16-21-34-9-38-0
0-20-35-36-3-22-1-0
0-49-10-33-45-15-37-0
0-27-23-7-43-24-0
0-11-2-32-0
0-46-12-47-0
0-28-31-8-48-6-0
0-14-25-18-0
Cost: 595
0-14-25-18-0
0-11-2-32-0
0-1-22-3-36-35-20-0
0-27-23-7-43-24-0
0-38-9-34-21-16-0
0-37-15-45-33-10-49-0
0-47-12-46-0
0-17-44-42-41-4-0
0-6-48-8-31-28-0
Cost: 595
0-47-12-46-0
0-16-21-34-9-38-0
0-24-43-7-23-27-0
0-1-22-3-36-35-20-0
0-37-15-45-33-10-49-0
0-4-41-42-44-17-0
0-32-2-11-0
0-6-48-8-31-28-0
0-14-25-18-0
Cost: 595
0-32-2-11-0
0-14-25-18-0
0-46-12-47-0
0-27-23-7-43-24-0
0-49-10-33-45-15-37-0
0-16-21-34-9-38-0
0-1-22-3-36-35-20-0
0-28-31-8-48-6-0
0-17-44-42-41-4-0
Cost: 595
0-32-2-11-0
0-38-9-34-21-16-0
0-24-43-7-23-27-0
0-14-25-18-0
0-17-44-42-41-4-0
0-46-12-47-0
0-37-15-45-33-10-49-0
0-1-22-3-36-35-20-0
0-6-48-8-31-28-0
Cost: 595
0-32-2-11-0
0-38-9-34-21-16-0
0-24-43-7-23-27-0
0-14-25-18-0
0-17-44-42-41-4-0
0-46-12-47-0
0-37-15-45-33-10-49-0
0-1-22-3-36-35-20-0
0-6-48-8-31-28-0
Cost: 595
0-32-2-11-0
0-38-9-34-21-16-0
0-24-43-7-23-27-0
0-14-25-18-0
0-17-44-42-41-4-0
0-46-12-47-0
0-37-15-45-33-10-49-0
0-1-22-3-36-35-20-0
0-6-48-8-31-28-0
Cost: 595
0-32-2-11-0
0-38-9-34-21-16-0
0-24-43-7-23-27-0
0-14-25-18-0
0-17-44-42-41-4-0
0-46-12-47-0
0-37-15-45-33-10-49-0
0-1-22-3-36-35-20-0
0-6-48-8-31-28-0
Cost: 595
0-46-12-47-0
0-11-2-32-0
0-16-21-34-9-38-0
0-14-25-18-0
0-1-22-3-36-35-20-0
0-24-43-7-23-27-0
0-37-15-45-33-10-49-0
0-4-41-42-44-17-0
0-28-31-8-48-6-0
Cost: 595
0-6-48-8-31-28-0
0-17-44-42-41-4-0
0-47-12-46-0
0-49-10-33-45-15-37-0
0-11-2-32-0
0-27-23-7-43-24-0
0-38-9-34-21-16-0
0-1-22-3-36-35-20-0
0-14-25-18-0
Cost: 595
0-46-12-47-0
0-49-10-33-45-15-37-0
0-28-31-8-48-6-0
0-27-23-7-43-24-0
0-17-44-42-41-4-0
0-16-21-34-9-38-0
0-1-22-3-36-35-20-0
0-11-2-32-0
0-14-25-18-0
Cost: 595
0-16-21-34-9-38-0
0-20-35-36-3-22-1-0
0-32-2-11-0
0-4-41-42-44-17-0
0-27-23-7-43-24-0
0-37-15-45-33-10-49-0
0-47-12-46-0
0-28-31-8-48-6-0
0-18-25-14-0
Cost: 595
0-46-12-47-0
0-49-10-33-45-15-37-0
0-28-31-8-48-6-0
0-27-23-7-43-24-0
0-17-44-42-41-4-0
0-16-21-34-9-38-0
0-1-22-3-36-35-20-0
0-11-2-32-0
0-14-25-18-0
Cost: 595
0-46-12-47-0
0-49-10-33-45-15-37-0
0-28-31-8-48-6-0
0-27-23-7-43-24-0
0-17-44-42-41-4-0
0-16-21-34-9-38-0
0-1-22-3-36-35-20-0
0-11-2-32-0
0-14-25-18-0
Cost: 595
0-47-12-46-0
0-18-25-14-0
0-16-21-34-9-38-0
0-32-2-11-0
0-4-41-42-44-17-0
0-6-48-8-31-28-0
0-49-10-33-45-15-37-0
0-24-43-7-23-27-0
0-1-22-3-36-35-20-0
Cost: 595
0-20-35-36-3-22-1-0
0-14-25-18-0
0-6-48-8-31-28-0
0-49-10-33-45-15-37-0
0-11-2-32-0
0-4-41-42-44-17-0
0-47-12-46-0
0-27-23-7-43-24-0
0-38-9-34-21-16-0
Cost: 595
0-16-21-34-9-38-0
0-28-31-8-48-6-0
0-49-10-33-45-15-37-0
0-46-12-47-0
0-24-43-7-23-27-0
0-4-41-42-44-17-0
0-20-35-36-3-22-1-0
0-32-2-11-0
0-18-25-14-0
Cost: 595
0-16-21-34-9-38-0
0-28-31-8-48-6-0
0-49-10-33-45-15-37-0
0-46-12-47-0
0-24-43-7-23-27-0
0-4-41-42-44-17-0
0-20-35-36-3-22-1-0
0-32-2-11-0
0-18-25-14-0
Cost: 595
0-11-2-32-0
0-14-25-18-0
0-47-12-46-0
0-1-22-3-36-35-20-0
0-4-41-42-44-17-0
0-27-23-7-43-24-0
0-16-21-34-9-38-0
0-6-48-8-31-28-0
0-49-10-33-45-15-37-0
Cost: 595
0-11-2-32-0
0-14-25-18-0
0-47-12-46-0
0-1-22-3-36-35-20-0
0-4-41-42-44-17-0
0-27-23-7-43-24-0
0-16-21-34-9-38-0
0-6-48-8-31-28-0
0-49-10-33-45-15-37-0
Cost: 595
0-47-12-46-0
0-37-15-45-33-10-49-0
0-27-23-7-43-24-0
0-38-9-34-21-16-0
0-6-48-8-31-28-0
0-20-35-36-3-22-1-0
0-18-25-14-0
0-11-2-32-0
0-4-41-42-44-17-0
Cost: 595
0-11-2-32-0
0-14-25-18-0
0-47-12-46-0
0-1-22-3-36-35-20-0
0-4-41-42-44-17-0
0-27-23-7-43-24-0
0-16-21-34-9-38-0
0-6-48-8-31-28-0
0-49-10-33-45-15-37-0
Cost: 595
0-20-35-36-3-22-1-0
0-14-25-18-0
0-6-48-8-31-28-0
0-49-10-33-45-15-37-0
0-11-2-32-0
0-4-41-42-44-17-0
0-47-12-46-0
0-27-23-7-43-24-0
0-38-9-34-21-16-0
Cost: 595
0-28-31-8-48-6-0
0-11-2-32-0
0-16-21-34-9-38-0
0-47-12-46-0
0-1-22-3-36-35-20-0
0-14-25-18-0
0-4-41-42-44-17-0
0-27-23-7-43-24-0
0-49-10-33-45-15-37-0
Cost: 595
0-37-15-45-33-10-49-0
0-20-35-36-3-22-1-0
0-6-48-8-31-28-0
0-46-12-47-0
0-14-25-18-0
0-11-2-32-0
0-27-23-7-43-24-0
0-38-9-34-21-16-0
0-17-44-42-41-4-0
Cost: 598
0-47-12-46-0
0-49-10-33-45-15-37-0
0-38-9-34-21-29-0
0-1-22-3-36-35-20-0
0-23-7-43-24-0
0-4-41-42-44-17-0
0-32-2-16-11-0
0-27-31-8-48-6-0
0-18-25-14-0
Cost: 601
0-47-12-46-0
0-20-35-36-3-22-1-0
0-16-21-34-9-38-0
0-49-10-33-45-15-37-0
0-18-25-14-0
0-6-48-8-31-27-0
0-24-43-7-23-0
0-4-41-42-44-17-0
0-11-29-2-32-0
Cost: 595
0-4-41-42-44-17-0
0-11-2-32-0
0-1-22-3-36-35-20-0
0-24-43-7-23-27-0
0-14-25-18-0
0-28-31-8-48-6-0
0-46-12-47-0
0-16-21-34-9-38-0
0-37-15-45-33-10-49-0
Cost: 595
0-28-31-8-48-6-0
0-49-10-33-45-15-37-0
0-32-2-11-0
0-18-25-14-0
0-4-41-42-44-17-0
0-46-12-47-0
0-24-43-7-23-27-0
0-20-35-36-3-22-1-0
0-16-21-34-9-38-0
